56 44 23 13 1 10 59 48 57 28 22 37 30 1 16 39 4 1 20 15 1 24 8 34 43 33 27 5 1 25 31 11 60 46 38 1 40 29 61 12 45 1 41 26 21 7 42 54 9 1 50 3 6 55 47 1 51 14 18 58 53 32 1 52 35 36 19 49 17 2 1 56 44 23 13 1  (949)
Cost 1247.4

